p edge 64
e 0 13
e 0 34
e 0 53
e 1 23
e 1 29
e 1 41
e 1 55
e 2 3
e 2 5
e 2 18
e 2 22
e 2 46
e 2 58
e 2 61
e 3 6
e 3 26
e 3 30
e 3 58
e 3 59
e 3 60
e 3 61
e 4 18
e 4 20
e 4 43
e 4 45
e 4 46
e 4 61
e 5 12
e 5 18
e 5 22
e 5 38
e 6 30
e 6 39
e 6 43
e 6 44
e 6 61
e 7 17
e 7 19
e 7 27
e 7 28
e 7 35
e 7 54
e 7 56
e 7 63
e 8 9
e 8 10
e 8 12
e 8 18
e 9 10
e 9 21
e 10 18
e 10 20
e 10 21
e 11 14
e 11 42
e 12 18
e 13 14
e 13 24
e 13 28
e 13 34
e 13 37
e 14 24
e 14 34
e 14 42
e 14 53
e 15 40
e 15 48
e 15 50
e 16 25
e 16 31
e 16 32
e 16 35
e 16 52
e 16 54
e 17 27
e 17 49
e 17 50
e 17 54
e 17 56
e 18 20
e 18 46
e 19 27
e 19 28
e 20 21
e 20 45
e 20 47
e 20 57
e 20 62
e 21 62
e 22 38
e 22 48
e 22 58
e 23 41
e 23 43
e 23 45
e 23 47
e 23 55
e 24 28
e 24 31
e 24 35
e 24 37
e 24 42
e 24 63
e 25 31
e 25 42
e 25 52
e 26 30
e 26 32
e 26 52
e 26 60
e 27 56
e 28 37
e 28 63
e 29 51
e 29 55
e 30 44
e 30 60
e 31 35
e 31 42
e 32 52
e 32 54
e 32 60
e 33 39
e 33 44
e 33 51
e 33 55
e 34 53
e 35 54
e 35 63
e 36 48
e 36 49
e 36 50
e 36 58
e 36 59
e 38 40
e 38 48
e 39 43
e 39 44
e 39 55
e 40 48
e 41 47
e 41 57
e 43 45
e 43 55
e 43 61
e 45 47
e 46 61
e 47 57
e 48 50
e 48 58
e 49 50
e 49 56
e 49 59
e 51 55
e 54 56
e 54 60
e 56 59
e 56 60
e 57 62
e 58 59
e 59 60
c k 6
